c "137337.clq"
p edge 150 584
e 1 5
e 1 6
e 1 19
e 1 38
e 1 46
e 1 47
e 1 53
e 1 65
e 1 74
e 1 78
e 1 81
e 1 98
e 1 100
e 1 102
e 1 104
e 1 107
e 1 109
e 1 113
e 1 114
e 1 124
e 2 5
e 2 8
e 2 10
e 2 12
e 2 17
e 2 21
e 2 24
e 2 26
e 2 44
e 2 75
e 2 91
e 2 101
e 2 105
e 2 116
e 2 140
e 2 144
e 2 149
e 2 150
e 3 5
e 3 6
e 3 7
e 3 12
e 3 22
e 3 25
e 3 37
e 3 63
e 4 5
e 4 6
e 4 7
e 4 9
e 4 16
e 4 18
e 4 20
e 4 25
e 4 28
e 4 31
e 4 37
e 4 38
e 4 40
e 4 41
e 4 44
e 4 49
e 4 59
e 4 80
e 4 86
e 4 87
e 4 88
e 4 108
e 4 110
e 4 137
e 4 139
e 4 150
e 5 6
e 5 7
e 5 8
e 5 9
e 5 10
e 5 11
e 5 13
e 5 14
e 5 15
e 5 16
e 5 17
e 5 18
e 5 19
e 5 22
e 5 23
e 5 24
e 5 35
e 5 36
e 5 37
e 5 44
e 5 45
e 5 46
e 5 48
e 5 52
e 5 58
e 5 59
e 5 63
e 5 70
e 5 87
e 5 96
e 5 99
e 5 105
e 5 112
e 5 117
e 5 134
e 5 138
e 6 7
e 6 8
e 6 9
e 6 10
e 6 11
e 6 12
e 6 13
e 6 14
e 6 21
e 6 22
e 6 23
e 6 25
e 6 27
e 6 28
e 6 29
e 6 30
e 6 31
e 6 34
e 6 40
e 6 43
e 6 46
e 6 47
e 6 52
e 6 55
e 6 64
e 6 68
e 6 69
e 6 70
e 6 71
e 6 76
e 6 100
e 6 102
e 6 114
e 6 118
e 6 127
e 6 133
e 6 137
e 6 140
e 6 141
e 6 146
e 7 8
e 7 9
e 7 15
e 7 25
e 7 30
e 7 113
e 7 127
e 7 140
e 7 147
e 8 12
e 8 13
e 8 18
e 8 19
e 8 56
e 8 67
e 8 68
e 8 83
e 8 85
e 8 86
e 8 127
e 8 135
e 8 137
e 9 10
e 9 11
e 9 14
e 9 20
e 9 29
e 9 32
e 9 39
e 9 71
e 9 80
e 10 11
e 10 13
e 10 16
e 10 17
e 10 22
e 10 30
e 10 35
e 10 43
e 10 54
e 10 62
e 10 65
e 10 77
e 10 83
e 10 132
e 10 133
e 11 14
e 11 15
e 11 23
e 11 35
e 11 40
e 11 41
e 11 87
e 11 106
e 11 108
e 11 128
e 11 129
e 12 19
e 12 32
e 12 49
e 12 50
e 12 51
e 12 59
e 12 60
e 12 73
e 12 84
e 12 96
e 12 131
e 12 140
e 12 147
e 13 17
e 13 20
e 13 24
e 13 26
e 13 32
e 13 53
e 13 60
e 13 61
e 13 62
e 13 72
e 13 95
e 13 101
e 13 110
e 13 130
e 14 15
e 14 30
e 14 38
e 14 54
e 14 56
e 14 73
e 14 98
e 14 115
e 14 131
e 15 16
e 15 20
e 15 27
e 15 34
e 15 41
e 15 42
e 15 45
e 15 47
e 15 51
e 15 54
e 15 68
e 15 86
e 15 99
e 15 103
e 15 117
e 16 33
e 16 66
e 16 107
e 17 18
e 17 21
e 17 27
e 17 28
e 17 29
e 17 36
e 17 61
e 17 74
e 17 75
e 17 89
e 17 97
e 17 98
e 17 100
e 17 115
e 17 120
e 17 134
e 17 137
e 18 26
e 18 34
e 18 60
e 18 85
e 18 147
e 19 36
e 19 37
e 19 38
e 19 42
e 19 43
e 19 50
e 19 55
e 19 64
e 19 69
e 19 74
e 19 128
e 19 130
e 19 138
e 19 149
e 20 21
e 20 27
e 20 45
e 20 46
e 20 53
e 20 56
e 20 78
e 20 82
e 20 101
e 20 103
e 21 28
e 21 31
e 21 33
e 21 34
e 21 57
e 21 72
e 21 95
e 21 112
e 21 126
e 21 138
e 22 23
e 22 24
e 22 41
e 22 42
e 22 58
e 22 59
e 22 65
e 22 83
e 22 90
e 22 94
e 22 114
e 22 122
e 23 43
e 23 64
e 23 66
e 23 88
e 23 89
e 23 93
e 23 94
e 23 103
e 23 107
e 23 109
e 24 51
e 24 57
e 24 110
e 25 26
e 25 31
e 25 36
e 25 55
e 25 69
e 25 84
e 26 29
e 26 35
e 26 40
e 26 44
e 26 58
e 26 70
e 26 74
e 26 76
e 26 79
e 26 81
e 26 116
e 27 32
e 27 33
e 27 48
e 27 73
e 27 76
e 27 102
e 27 141
e 27 149
e 28 48
e 28 90
e 28 96
e 28 118
e 28 123
e 28 148
e 29 39
e 29 51
e 29 52
e 29 63
e 29 64
e 29 66
e 29 84
e 29 85
e 29 88
e 29 91
e 29 93
e 29 105
e 29 108
e 29 118
e 29 119
e 29 123
e 29 132
e 30 39
e 30 76
e 30 79
e 30 142
e 32 33
e 32 61
e 32 99
e 32 105
e 32 110
e 32 119
e 32 145
e 33 55
e 33 56
e 33 77
e 33 109
e 33 120
e 34 52
e 34 57
e 34 58
e 34 79
e 35 39
e 35 49
e 35 122
e 36 47
e 36 57
e 36 75
e 36 82
e 36 97
e 36 112
e 36 121
e 36 123
e 36 131
e 37 67
e 37 72
e 37 108
e 37 113
e 37 138
e 37 141
e 39 50
e 39 90
e 39 92
e 39 125
e 40 45
e 40 48
e 40 67
e 40 89
e 40 101
e 41 42
e 41 78
e 41 81
e 41 84
e 41 106
e 41 115
e 41 120
e 41 121
e 41 122
e 41 125
e 41 134
e 42 97
e 43 94
e 44 65
e 44 66
e 44 111
e 44 124
e 44 132
e 44 136
e 45 49
e 45 73
e 45 82
e 45 95
e 45 129
e 46 54
e 46 69
e 46 149
e 47 126
e 48 50
e 48 53
e 48 96
e 49 77
e 49 125
e 50 75
e 50 86
e 50 100
e 50 106
e 51 134
e 52 85
e 52 91
e 52 119
e 52 144
e 53 62
e 53 88
e 53 94
e 53 142
e 54 60
e 54 120
e 54 124
e 55 63
e 55 71
e 55 78
e 55 92
e 55 98
e 56 61
e 56 71
e 56 77
e 56 90
e 56 109
e 56 117
e 57 79
e 57 87
e 58 62
e 58 93
e 58 95
e 58 112
e 58 115
e 60 114
e 60 146
e 61 70
e 61 82
e 62 80
e 63 68
e 63 80
e 64 67
e 64 103
e 64 111
e 64 136
e 67 83
e 67 116
e 67 144
e 67 148
e 69 129
e 69 141
e 70 72
e 71 81
e 72 111
e 72 143
e 72 148
e 75 92
e 76 106
e 76 130
e 76 146
e 77 132
e 80 102
e 81 89
e 81 143
e 81 145
e 82 143
e 83 91
e 83 99
e 84 126
e 84 133
e 86 92
e 86 93
e 86 118
e 87 111
e 88 107
e 88 145
e 89 117
e 91 104
e 91 142
e 92 97
e 92 123
e 93 119
e 93 131
e 94 104
e 94 144
e 95 146
e 97 145
e 99 143
e 101 104
e 103 122
e 106 125
e 106 135
e 107 113
e 108 139
e 109 121
e 112 121
e 112 135
e 112 136
e 113 127
e 114 116
e 116 124
e 118 128
e 118 130
e 118 139
e 119 139
e 120 129
e 121 150
e 122 126
e 122 128
e 124 136
e 124 142
e 126 133
e 126 135
e 127 148
e 128 147
e 137 150
